Gurobi Optimizer version 9.1.2 build v9.1.2rc0 (linux64)
Thread count: 36 physical cores, 72 logical processors, using up to 32 threads
Optimize a model with 12 rows, 57 columns and 590 nonzeros
Model fingerprint: 0xf32eec78
Model has 47 quadratic constraints
Coefficient statistics:
  Matrix range     [2e-05, 3e+00]
  QMatrix range    [1e+00, 1e+00]
  QLMatrix range   [1e+00, 1e+00]
  Objective range  [8e-03, 7e-01]
  Bounds range     [1e+00, 1e+00]
  RHS range        [1e+00, 1e+00]
Presolve removed 9 rows and 0 columns

Continuous model is non-convex -- solving as a MIP.

Presolve removed 9 rows and 0 columns
Presolve time: 0.00s
Presolved: 189 rows, 57 columns, 443 nonzeros
Presolved model has 47 bilinear constraint(s)
Variable types: 57 continuous, 0 integer (0 binary)

Root relaxation: objective -1.743721e+00, 44 iterations, 0.00 seconds

    Nodes    |    Current Node    |     Objective Bounds      |     Work
 Expl Unexpl |  Obj  Depth IntInf | Incumbent    BestBd   Gap | It/Node Time

     0     0   -1.74372    0   38          -   -1.74372      -     -    0s
H    0     0                       0.6147548   -1.74372   384%     -    0s
     0     0   -1.64739    0    1    0.61475   -1.64739   368%     -    0s
H    0     0                      -1.6450460   -1.64739  0.14%     -    0s
     0     0     cutoff    0        -1.64505   -1.64505  0.00%     -    0s

Cutting planes:
  RLT: 25
  BQP: 3

Explored 1 nodes (76 simplex iterations) in 0.01 seconds
Thread count was 32 (of 72 available processors)

Solution count 2: -1.64505 0.614755 
No other solutions better than -1.64505

Optimal solution found (tolerance 1.00e-04)
Best objective -1.645045978473e+00, best bound -1.645045978473e+00, gap 0.0000%

User-callback calls 78, time in user-callback 0.00 sec
Gurobi Optimizer version 9.1.2 build v9.1.2rc0 (linux64)
Thread count: 36 physical cores, 72 logical processors, using up to 32 threads
Optimize a model with 24 rows, 125 columns and 2580 nonzeros
Model fingerprint: 0x3e6e5abb
Model has 105 quadratic constraints
Coefficient statistics:
  Matrix range     [5e-06, 5e+01]
  QMatrix range    [1e+00, 1e+00]
  QLMatrix range   [1e+00, 1e+00]
  Objective range  [1e-02, 1e+00]
  Bounds range     [1e+00, 1e+00]
  RHS range        [1e+00, 1e+00]
Presolve removed 10 rows and 0 columns

Continuous model is non-convex -- solving as a MIP.

Presolve removed 10 rows and 0 columns
Presolve time: 0.00s
Presolved: 429 rows, 125 columns, 2142 nonzeros
Presolved model has 105 bilinear constraint(s)
Variable types: 125 continuous, 0 integer (0 binary)

Root relaxation: objective -4.657676e+00, 143 iterations, 0.00 seconds

    Nodes    |    Current Node    |     Objective Bounds      |     Work
 Expl Unexpl |  Obj  Depth IntInf | Incumbent    BestBd   Gap | It/Node Time

     0     0   -4.65768    0   95          -   -4.65768      -     -    0s
H    0     0                      -0.1508263   -4.65768  2988%     -    0s
     0     0   -3.96592    0   72   -0.15083   -3.96592  2529%     -    0s
H    0     0                      -1.6329688   -3.96592   143%     -    0s
     0     0   -3.95840    0   65   -1.63297   -3.95840   142%     -    0s
     0     0   -3.88293    0   77   -1.63297   -3.88293   138%     -    0s
H    0     0                      -1.8962279   -3.88293   105%     -    0s
     0     0   -3.84746    0   76   -1.89623   -3.84746   103%     -    0s
     0     0   -3.81258    0   65   -1.89623   -3.81258   101%     -    0s
H    0     0                      -2.1664483   -3.81258  76.0%     -    0s
     0     0   -3.80599    0   66   -2.16645   -3.80599  75.7%     -    0s
     0     0   -3.79583    0   71   -2.16645   -3.79583  75.2%     -    0s
     0     0   -3.79311    0   71   -2.16645   -3.79311  75.1%     -    0s
     0     0   -3.79229    0   71   -2.16645   -3.79229  75.0%     -    0s
     0     0   -3.79211    0   71   -2.16645   -3.79211  75.0%     -    0s
     0     0   -3.79163    0   83   -2.16645   -3.79163  75.0%     -    0s
     0     0   -3.79151    0   83   -2.16645   -3.79151  75.0%     -    0s
     0     0   -3.79127    0   83   -2.16645   -3.79127  75.0%     -    0s
H    0     0                      -3.0342430   -3.79127  24.9%     -    0s
H    0     0                      -3.0768003   -3.79127  23.2%     -    0s
H    0     0                      -3.0833210   -3.79127  23.0%     -    0s
     0     2   -3.79127    0   83   -3.08332   -3.79127  23.0%     -    0s
*  596   493              17      -3.1318207   -3.43258  9.60%  30.6    0s
*  650   493              24      -3.1879324   -3.43258  7.67%  29.0    0s
*  718   448              21      -3.1899669   -3.43258  7.61%  27.6    0s
*  719   448              21      -3.1899773   -3.43258  7.61%  27.5    0s
*  791   448              26      -3.1961933   -3.43258  7.40%  26.1    0s
*  870   519              23      -3.2021075   -3.43258  7.20%  24.8    0s
* 1033   519              24      -3.2021396   -3.43258  7.20%  24.2    0s
* 1064   645              25      -3.2023414   -3.43258  7.19%  23.7    0s
* 1065   645              25      -3.2023417   -3.43258  7.19%  23.7    0s
* 1109   645              21      -3.2852125   -3.43258  4.49%  23.5    0s
* 1418   495              22      -3.2865337   -3.30743  0.64%  20.7    0s
* 1419   495              22      -3.2866276   -3.30743  0.63%  20.7    0s
* 1558   523              22      -3.2872935   -3.30743  0.61%  19.2    0s
* 1559   523              22      -3.2873193   -3.30743  0.61%  19.2    0s
* 1561   523              22      -3.2874234   -3.30743  0.61%  19.2    0s
* 1568   523              20      -3.2889193   -3.30743  0.56%  19.1    0s
* 1872   316              21      -3.2889451   -3.29956  0.32%  16.8    0s
* 1912   316              21      -3.2893941   -3.29603  0.20%  16.5    0s
* 2004   316              20      -3.2894117   -3.29273  0.10%  15.9    0s
* 2006   316              20      -3.2894120   -3.29273  0.10%  15.9    0s
* 2040   316              21      -3.2894618   -3.29273  0.10%  15.7    0s
* 2246   179              22      -3.2895870   -3.29273  0.10%  14.7    0s
* 2247   179              23      -3.2895875   -3.29273  0.10%  14.7    0s
* 2263   179              22      -3.2896106   -3.29273  0.09%  14.6    0s
* 2434   179              23      -3.2896125   -3.29273  0.09%  13.8    0s
* 2616    25              17      -3.2896279   -3.29031  0.02%  12.9    0s
* 2621    25              18      -3.2896290   -3.29031  0.02%  12.9    0s
* 2671    25              23      -3.2896297   -3.28966  0.00%  12.7    0s

Cutting planes:
  RLT: 57
  BQP: 9
  PSD: 27

Explored 2810 nodes (34372 simplex iterations) in 0.65 seconds
Thread count was 32 (of 72 available processors)

Solution count 10: -3.28963 -3.28963 -3.28963 ... -3.28939

Optimal solution found (tolerance 1.00e-04)
Best objective -3.289629674765e+00, best bound -3.289630473512e+00, gap 0.0000%

User-callback calls 5941, time in user-callback 0.00 sec



objective value: -3.2896296747653
objective bound: -3.2896304735117914
x_opt: [0.0, 0.0, 1.0, 0.08576842521823552, 1.0, 0.6114306512829674, 1.0, 1.0, 1.0, 0.0, 0.0, 0.289323805820412, 0.05294426170442161, 0.0, 0.0, 0.5083816036990816, 0.0, 0.0, 0.0, 0.0]
GUROBI solution time: 0.6527061462402344




